benchmarks/VRPTW/TSPTW/solution/n20w100.001.txt.solution
1 10 12 3 16 17 5 9 2 6 7 11 15 19 14 8 4 18 13 21 20 
237
